language Essence 1.3

letting blksize_delta be
        function(1 --> 10, 2 --> 10, 3 --> 10, 4 --> 10, 5 --> 10, 6 --> 10, 7 --> 10, 8 --> 10, 9 --> 10, 10 --> 10,
                 11 --> 10, 12 --> 10, 13 --> 10, 14 --> 10, 15 --> 10, 16 --> 10)
letting maxcars be
        function(1 --> 8, 2 --> 8, 3 --> 8, 4 --> 10, 5 --> 8, 6 --> 8, 7 --> 8, 8 --> 9, 9 --> 8, 10 --> 8, 11 --> 8,
                 12 --> 8, 13 --> 8, 14 --> 8, 15 --> 8, 16 --> 8)
letting n_cars be 58
letting n_classes be 32
letting n_options be 16
letting quantity be
        function(1 --> 1, 2 --> 19, 3 --> 5, 4 --> 1, 5 --> 1, 6 --> 1, 7 --> 1, 8 --> 1, 9 --> 5, 10 --> 1, 11 --> 1,
                 12 --> 1, 13 --> 1, 14 --> 1, 15 --> 1, 16 --> 1, 17 --> 1, 18 --> 1, 19 --> 1, 20 --> 1, 21 --> 1,
                 22 --> 1, 23 --> 1, 24 --> 1, 25 --> 1, 26 --> 1, 27 --> 1, 28 --> 1, 29 --> 1, 30 --> 1, 31 --> 1,
                 32 --> 1)
letting usage be
        relation((1, 1), (1, 9), (1, 13), (2, 2), (2, 3), (2, 4), (3, 3), (3, 6), (4, 9), (4, 12), (5, 3), (5, 12),
                 (5, 14), (6, 6), (6, 11), (6, 12), (6, 13), (7, 5), (7, 15), (8, 1), (8, 4), (8, 13), (8, 14), (8, 15),
                 (9, 12), (9, 13), (10, 3), (11, 8), (11, 13), (11, 16), (12, 8), (12, 12), (13, 1), (13, 6), (13, 7),
                 (13, 11), (14, 2), (14, 5), (14, 6), (14, 14), (14, 16), (15, 2), (15, 8), (15, 9), (15, 13), (15, 15),
                 (16, 2), (17, 3), (17, 5), (17, 9), (18, 4), (18, 10), (18, 14), (19, 2), (19, 4), (19, 7), (19, 10),
                 (19, 11), (19, 13), (19, 16), (20, 5), (20, 13), (20, 15), (21, 6), (21, 9), (21, 10), (22, 5),
                 (22, 7), (22, 12), (22, 14), (23, 8), (23, 11), (23, 13), (24, 1), (24, 9), (24, 13), (25, 10),
                 (25, 11), (25, 12), (26, 1), (26, 5), (26, 7), (26, 10), (27, 14), (27, 16), (28, 4), (28, 10),
                 (28, 14), (29, 1), (29, 6), (29, 7), (29, 8), (30, 2), (30, 7), (30, 9), (30, 10), (30, 11), (30, 15),
                 (31, 3), (31, 7), (31, 14), (32, 2))
$ Visualisation for usage
$  1  1
$  1  9
$  1 13
$  2  2
$  2  3
$  2  4
$  3  3
$  3  6
$  4  9
$  4 12
$  5  3
$  5 12
$  5 14
$  6  6
$  6 11
$  6 12
$  6 13
$  7  5
$  7 15
$  8  1
$  8  4
$  8 13
$  8 14
$  8 15
$  9 12
$  9 13
$ 10  3
$ 11  8
$ 11 13
$ 11 16
$ 12  8
$ 12 12
$ 13  1
$ 13  6
$ 13  7
$ 13 11
$ 14  2
$ 14  5
$ 14  6
$ 14 14
$ 14 16
$ 15  2
$ 15  8
$ 15  9
$ 15 13
$ 15 15
$ 16  2
$ 17  3
$ 17  5
$ 17  9
$ 18  4
$ 18 10
$ 18 14
$ 19  2
$ 19  4
$ 19  7
$ 19 10
$ 19 11
$ 19 13
$ 19 16
$ 20  5
$ 20 13
$ 20 15
$ 21  6
$ 21  9
$ 21 10
$ 22  5
$ 22  7
$ 22 12
$ 22 14
$ 23  8
$ 23 11
$ 23 13
$ 24  1
$ 24  9
$ 24 13
$ 25 10
$ 25 11
$ 25 12
$ 26  1
$ 26  5
$ 26  7
$ 26 10
$ 27 14
$ 27 16
$ 28  4
$ 28 10
$ 28 14
$ 29  1
$ 29  6
$ 29  7
$ 29  8
$ 30  2
$ 30  7
$ 30  9
$ 30 10
$ 30 11
$ 30 15
$ 31  3
$ 31  7
$ 31 14
$ 32  2

